
Gurobi 12.0.2 (win64) logging started Thu Jun  5 10:48:45 2025

Set parameter LogFile to value "C:\Ioana\_uni\honours\slp\algorithm\Main_files\results\others\prox_tubules\Task_004_Sample002_irr_gurobi.log"
Gurobi Optimizer version 12.0.2 build v12.0.2rc0 (win64 - Windows 11.0 (26100.2))

CPU model: Intel(R) Core(TM) Ultra 5 125H, instruction set [SSE2|AVX|AVX2]
Thread count: 14 physical cores, 18 logical processors, using up to 18 threads

Non-default parameters:
TimeLimit  2200

Optimize a model with 47658 rows, 34811 columns and 147858 nonzeros
Model fingerprint: 0x0f92cae9
Variable types: 17417 continuous, 17394 integer (17394 binary)
Coefficient statistics:
  Matrix range     [1e-04, 8e+04]
  Objective range  [3e-05, 9e-01]
  Bounds range     [1e+00, 1e+03]
  RHS range        [1e+00, 1e+00]
Presolve removed 31246 rows and 21850 columns
Presolve time: 0.33s
Presolved: 16412 rows, 12961 columns, 54608 nonzeros
Variable types: 6412 continuous, 6549 integer (6549 binary)

Root relaxation: objective 3.372152e-03, 2350 iterations, 0.18 seconds (0.29 work units)

    Nodes    |    Current Node    |     Objective Bounds      |     Work
 Expl Unexpl |  Obj  Depth IntInf | Incumbent    BestBd   Gap | It/Node Time

     0     0    0.00337    0   18          -    0.00337      -     -    0s
H    0     0                       2.2774857    0.00337   100%     -    0s
     0     0    1.75689    0   31    2.27749    1.75689  22.9%     -    1s
     0     0    1.85210    0   27    2.27749    1.85210  18.7%     -    1s
     0     0    2.12486    0   27    2.27749    2.12486  6.70%     -    1s
     0     0    2.17128    0   25    2.27749    2.17128  4.66%     -    1s
     0     0    2.17128    0   26    2.27749    2.17128  4.66%     -    1s
     0     0    2.17135    0   26    2.27749    2.17135  4.66%     -    1s
     0     0    2.17135    0   23    2.27749    2.17135  4.66%     -    1s
     0     0    2.17161    0   39    2.27749    2.17161  4.65%     -    1s
     0     0    2.17161    0   11    2.27749    2.17161  4.65%     -    2s
     0     0    2.17161    0   32    2.27749    2.17161  4.65%     -    2s
     0     0    2.20431    0    9    2.27749    2.20431  3.21%     -    2s
     0     0    2.20792    0    9    2.27749    2.20792  3.05%     -    2s
     0     0    2.21656    0   18    2.27749    2.21656  2.68%     -    2s

Explored 1 nodes (6525 simplex iterations) in 2.42 seconds (2.43 work units)
Thread count was 18 (of 18 available processors)

Solution count 1: 2.27749 

Optimal solution found (tolerance 1.00e-04)
Best objective 2.277485722131e+00, best bound 2.277485722131e+00, gap 0.0000%
